c 156_3_checker_6cl.cnf
c
c field = 156
c formula set type = 3_checker_6cl
c
p cnf 6 58
304 
306 
308 
-303 
-300 
-312 
305 
307 
309 
-302 
-301 
-313 
304 
306 
308 
-313 
-302 
-314 
305 
307 
309 
-312 
-303 
-315 
306 
308 
312 
-305 
-302 
-314 
307 
309 
313 
-304 
-303 
-315 
306 
308 
312 
-315 
-304 
-316 
307 
309 
313 
-314 
-305 
-317 
308 
312 
314 
-307 
-304 
-316 
309 
313 
315 
-306 
-305 
-317 
308 
312 
314 
-317 
-306 
-318 
309 
313 
315 
-316 
-307 
-319 
312 
314 
316 
-309 
-306 
-318 
313 
315 
317 
-308 
-307 
-319 
312 
314 
316 
-319 
-308 
-320 
313 
315 
317 
-318 
-309 
-321 
220 
250 
280 
-191 
-160 
-340 
221 
251 
281 
-190 
-161 
-341 
220 
250 
280 
-341 
-190 
-370 
221 
251 
281 
-340 
-191 
-371 
250 
280 
340 
-221 
-190 
-370 
251 
281 
341 
-220 
-191 
-371 
250 
280 
340 
-371 
-220 
-400 
251 
281 
341 
-370 
-221 
-401 
280 
340 
370 
-251 
-220 
-400 
281 
341 
371 
-250 
-221 
-401 
280 
340 
370 
-401 
-250 
-430 
281 
341 
371 
-400 
-251 
-431 
340 
370 
400 
-281 
-250 
-430 
341 
371 
401 
-280 
-251 
-431 
214 
246 
278 
-183 
-150 
-342 
215 
247 
279 
-182 
-151 
-343 
214 
246 
278 
-343 
-182 
-374 
215 
247 
279 
-342 
-183 
-375 
246 
278 
342 
-215 
-182 
-374 
247 
279 
343 
-214 
-183 
-375 
246 
278 
342 
-375 
-214 
-406 
247 
279 
343 
-374 
-215 
-407 
278 
342 
374 
-247 
-214 
-406 
279 
343 
375 
-246 
-215 
-407 
278 
342 
374 
-407 
-246 
-438 
279 
343 
375 
-406 
-247 
-439 
342 
374 
406 
-279 
-246 
-438 
343 
375 
407 
-278 
-247 
-439 
226 
254 
282 
-199 
-170 
-338 
227 
255 
283 
-198 
-171 
-339 
226 
254 
282 
-339 
-198 
-366 
227 
255 
283 
-338 
-199 
-367 
254 
282 
338 
-227 
-198 
-366 
255 
283 
339 
-226 
-199 
-367 
254 
282 
338 
-367 
-226 
-394 
255 
283 
339 
-366 
-227 
-395 
282 
338 
366 
-255 
-226 
-394 
283 
339 
367 
-254 
-227 
-395 
282 
338 
366 
-395 
-254 
-422 
283 
339 
367 
-394 
-255 
-423 
338 
366 
394 
-283 
-254 
-422 
339 
367 
395 
-282 
-255 
-423 
